c cksystemsgroup.github.io/unicorn
c CNF contains a total of 180 clauses.
c CNF contains a total of 57 variables.
c CNF clauses cover 1 bad states.
c Variable name mapping (17 names):
c   2: input[bit=7]
c   5: input[bit=6]
c   8: input[bit=5]
c   11: input[bit=4]
c   14: input[bit=3]
c   17: input[bit=2]
c   20: input[bit=1]
c   23: input[bit=0]
c   33: input[bit=7]
c   35: input[bit=6]
c   37: input[bit=5]
c   39: input[bit=4]
c   41: input[bit=3]
c   43: input[bit=2]
c   45: input[bit=1]
c   47: input[bit=0]
c   57: ?
p cnf 57 180
-1 0
-2 -3 0
2 3 0
-4 0
-5 -6 0
5 6 0
-7 0
-8 -9 0
8 9 0
-10 0
-11 -12 0
11 12 0
-13 0
-14 -15 0
14 15 0
-16 0
-17 -18 0
17 18 0
-19 0
-20 -21 0
20 21 0
-22 0
-23 -24 0
23 24 0
21 22 -25 0
21 24 -25 0
-22 -24 25 0
22 24 -25 0
-21 -24 25 0
-21 -22 25 0
18 19 -26 0
18 25 -26 0
-19 -25 26 0
19 25 -26 0
-18 -25 26 0
-18 -19 26 0
15 16 -27 0
15 26 -27 0
-16 -26 27 0
16 26 -27 0
-15 -26 27 0
-15 -16 27 0
12 13 -28 0
12 27 -28 0
-13 -27 28 0
13 27 -28 0
-12 -27 28 0
-12 -13 28 0
9 10 -29 0
9 28 -29 0
-10 -28 29 0
10 28 -29 0
-9 -28 29 0
-9 -10 29 0
6 7 -30 0
6 29 -30 0
-7 -29 30 0
7 29 -30 0
-6 -29 30 0
-6 -7 30 0
3 4 -31 0
3 30 -31 0
-4 -30 31 0
4 30 -31 0
-3 -30 31 0
-3 -4 31 0
-31 -32 0
31 32 0
3 4 30 -34 0
3 4 -30 34 0
3 -4 30 34 0
3 -4 -30 -34 0
-3 4 30 34 0
-3 4 -30 -34 0
-3 -4 30 -34 0
-3 -4 -30 34 0
6 7 29 -36 0
6 7 -29 36 0
6 -7 29 36 0
6 -7 -29 -36 0
-6 7 29 36 0
-6 7 -29 -36 0
-6 -7 29 -36 0
-6 -7 -29 36 0
9 10 28 -38 0
9 10 -28 38 0
9 -10 28 38 0
9 -10 -28 -38 0
-9 10 28 38 0
-9 10 -28 -38 0
-9 -10 28 -38 0
-9 -10 -28 38 0
12 13 27 -40 0
12 13 -27 40 0
12 -13 27 40 0
12 -13 -27 -40 0
-12 13 27 40 0
-12 13 -27 -40 0
-12 -13 27 -40 0
-12 -13 -27 40 0
15 16 26 -42 0
15 16 -26 42 0
15 -16 26 42 0
15 -16 -26 -42 0
-15 16 26 42 0
-15 16 -26 -42 0
-15 -16 26 -42 0
-15 -16 -26 42 0
18 19 25 -44 0
18 19 -25 44 0
18 -19 25 44 0
18 -19 -25 -44 0
-18 19 25 44 0
-18 19 -25 -44 0
-18 -19 25 -44 0
-18 -19 -25 44 0
21 22 24 -46 0
21 22 -24 46 0
21 -22 24 46 0
21 -22 -24 -46 0
-21 22 24 46 0
-21 22 -24 -46 0
-21 -22 24 -46 0
-21 -22 -24 46 0
-24 -48 0
24 48 0
-47 -48 49 0
47 -49 0
48 -49 0
45 46 -50 0
45 49 -50 0
-46 -49 50 0
46 49 -50 0
-45 -49 50 0
-45 -46 50 0
43 44 -51 0
43 50 -51 0
-44 -50 51 0
44 50 -51 0
-43 -50 51 0
-43 -44 51 0
41 42 -52 0
41 51 -52 0
-42 -51 52 0
42 51 -52 0
-41 -51 52 0
-41 -42 52 0
39 40 -53 0
39 52 -53 0
-40 -52 53 0
40 52 -53 0
-39 -52 53 0
-39 -40 53 0
37 38 -54 0
37 53 -54 0
-38 -53 54 0
38 53 -54 0
-37 -53 54 0
-37 -38 54 0
35 36 -55 0
35 54 -55 0
-36 -54 55 0
36 54 -55 0
-35 -54 55 0
-35 -36 55 0
33 34 -56 0
33 55 -56 0
-34 -55 56 0
34 55 -56 0
-33 -55 56 0
-33 -34 56 0
1 32 56 -57 0
1 32 -56 57 0
1 -32 56 57 0
1 -32 -56 -57 0
-1 32 56 57 0
-1 32 -56 -57 0
-1 -32 56 -57 0
-1 -32 -56 57 0
57 0
